c Synthetic graph for maximum clique benchmarking
c Vertices: 300
c Edges: 438
c Undirected graph (each edge listed once)
c Vertices: 300, Edges: 438
p edge 300 438
e 1 2
e 1 191
e 3 4
e 3 38
e 4 34
e 4 182
e 4 252
e 5 6
e 5 160
e 6 152
e 7 8
e 7 68
e 7 82
e 7 89
e 7 249
e 7 272
e 7 292
e 7 298
e 8 12
e 8 118
e 8 176
e 8 179
e 8 268
e 9 10
e 9 106
e 9 118
e 10 54
e 10 139
e 10 162
e 10 176
e 10 281
e 11 12
e 11 16
e 11 152
e 11 161
e 12 27
e 12 286
e 13 14
e 13 133
e 13 181
e 14 68
e 14 69
e 14 140
e 14 238
e 15 16
e 15 163
e 15 216
e 16 29
e 16 156
e 16 187
e 16 199
e 16 207
e 16 291
e 17 18
e 17 56
e 17 288
e 18 37
e 18 39
e 18 124
e 18 142
e 18 251
e 18 294
e 19 20
e 19 35
e 19 178
e 19 227
e 21 22
e 21 47
e 21 218
e 22 140
e 22 194
e 22 272
e 23 24
e 24 121
e 25 26
e 25 291
e 27 28
e 27 288
e 28 74
e 28 99
e 28 137
e 29 30
e 29 169
e 30 233
e 31 32
e 31 151
e 31 152
e 31 186
e 31 232
e 32 42
e 32 44
e 33 34
e 35 36
e 35 49
e 35 189
e 35 245
e 36 173
e 37 38
e 37 76
e 37 170
e 39 40
e 39 174
e 40 90
e 40 169
e 40 176
e 40 221
e 40 253
e 40 271
e 40 273
e 40 280
e 41 42
e 41 128
e 41 152
e 43 44
e 43 52
e 44 84
e 44 289
e 45 46
e 45 248
e 46 58
e 46 293
e 47 48
e 48 177
e 49 50
e 50 159
e 51 52
e 51 231
e 52 167
e 53 54
e 55 56
e 55 112
e 55 114
e 55 146
e 55 283
e 55 291
e 56 226
e 56 252
e 57 58
e 57 156
e 57 205
e 57 210
e 58 126
e 58 164
e 58 264
e 59 60
e 59 264
e 60 122
e 60 287
e 61 62
e 62 87
e 62 207
e 63 64
e 64 93
e 64 158
e 64 251
e 64 288
e 65 66
e 65 168
e 65 261
e 66 151
e 67 68
e 67 76
e 67 190
e 68 96
e 68 215
e 68 252
e 68 274
e 69 70
e 69 73
e 69 114
e 69 256
e 70 150
e 70 275
e 71 72
e 71 237
e 71 275
e 72 91
e 72 227
e 73 74
e 73 109
e 73 256
e 73 278
e 74 77
e 74 225
e 75 76
e 75 191
e 76 152
e 76 227
e 77 78
e 77 186
e 77 225
e 78 242
e 79 80
e 81 82
e 82 86
e 82 258
e 82 259
e 83 84
e 83 228
e 85 86
e 85 151
e 85 217
e 85 234
e 85 258
e 87 88
e 87 160
e 89 90
e 89 163
e 90 265
e 91 92
e 91 212
e 92 166
e 92 250
e 93 94
e 95 96
e 96 212
e 96 279
e 97 98
e 97 112
e 98 238
e 98 254
e 99 100
e 100 170
e 101 102
e 103 104
e 103 118
e 104 199
e 104 249
e 105 106
e 105 189
e 106 111
e 107 108
e 107 239
e 107 269
e 107 270
e 109 110
e 110 295
e 111 112
e 111 117
e 111 278
e 112 179
e 112 256
e 113 114
e 113 297
e 114 141
e 114 275
e 115 116
e 115 156
e 116 268
e 117 118
e 118 195
e 118 242
e 119 120
e 121 122
e 122 287
e 123 124
e 123 237
e 124 249
e 125 126
e 125 293
e 126 288
e 127 128
e 127 131
e 127 224
e 128 250
e 129 130
e 130 136
e 130 276
e 131 132
e 131 224
e 131 231
e 133 134
e 135 136
e 135 210
e 136 159
e 136 184
e 137 138
e 137 206
e 139 140
e 139 162
e 140 218
e 141 142
e 141 151
e 141 235
e 142 231
e 143 144
e 145 146
e 145 177
e 145 213
e 146 284
e 147 148
e 147 291
e 148 163
e 149 150
e 149 189
e 149 202
e 151 152
e 151 177
e 151 235
e 153 154
e 153 159
e 153 250
e 153 270
e 155 156
e 155 278
e 156 224
e 156 231
e 156 294
e 157 158
e 158 254
e 158 274
e 159 160
e 159 250
e 160 270
e 161 162
e 163 164
e 163 292
e 165 166
e 165 246
e 165 258
e 165 259
e 166 202
e 166 233
e 167 168
e 167 177
e 167 273
e 168 183
e 169 170
e 169 246
e 170 212
e 170 249
e 170 268
e 170 292
e 171 172
e 171 188
e 173 174
e 175 176
e 175 241
e 175 261
e 177 178
e 177 181
e 178 238
e 179 180
e 179 264
e 179 299
e 181 182
e 181 192
e 182 263
e 183 184
e 183 221
e 184 291
e 185 186
e 187 188
e 187 214
e 187 265
e 189 190
e 191 192
e 191 248
e 193 194
e 194 272
e 195 196
e 195 242
e 197 198
e 199 200
e 201 202
e 202 220
e 202 222
e 203 204
e 203 263
e 205 206
e 206 256
e 207 208
e 207 291
e 208 242
e 209 210
e 209 253
e 210 226
e 211 212
e 212 280
e 213 214
e 213 222
e 213 250
e 214 233
e 215 216
e 216 272
e 217 218
e 218 278
e 219 220
e 220 237
e 221 222
e 221 273
e 223 224
e 225 226
e 227 228
e 229 230
e 229 256
e 231 232
e 231 266
e 233 234
e 235 236
e 237 238
e 239 240
e 239 269
e 239 289
e 241 242
e 242 293
e 243 244
e 245 246
e 247 248
e 249 250
e 251 252
e 253 254
e 255 256
e 257 258
e 258 280
e 259 260
e 260 288
e 261 262
e 263 264
e 265 266
e 267 268
e 269 270
e 271 272
e 273 274
e 274 294
e 275 276
e 277 278
e 279 280
e 281 282
e 283 284
e 285 286
e 287 288
e 289 290
e 291 292
e 293 294
e 295 296
e 297 298
e 299 300
